400
200 200
1 140 170
2 140 426
3 140 320
4 140 234
5 140 194
6 140 50
7 139 323
8 139 717
9 138 78
10 138 398
11 138 805
12 138 254
13 137 30
14 136 693
15 136 956
16 136 905
17 135 366
18 135 533
19 135 126
20 135 561
21 135 651
22 135 394
23 134 146
24 134 384
25 134 122
26 133 145
27 133 832
28 133 96
29 132 72
30 132 255
31 131 950
32 131 355
33 131 132
34 131 656
35 131 395
36 130 656
37 130 495
38 130 392
39 130 108
40 129 334
41 129 439
42 128 199
43 128 955
44 127 723
45 127 383
46 127 740
47 127 760
48 127 799
49 127 641
50 127 581
51 126 47
52 126 956
53 125 428
54 125 856
55 124 262
56 124 953
57 124 326
58 124 131
59 124 11
60 123 480
61 123 150
62 123 775
63 123 686
64 123 956
65 123 742
66 122 340
67 122 329
68 122 750
69 122 611
70 122 224
71 121 692
72 121 849
73 121 355
74 121 410
75 120 768
76 120 580
77 120 425
78 119 421
79 118 239
80 118 469
81 118 696
82 118 525
83 118 127
84 118 244
85 117 86
86 117 949
87 116 23
88 116 436
89 116 796
90 116 225
91 115 391
92 115 867
93 115 102
94 114 130
95 114 618
96 114 999
97 114 232
98 113 25
99 113 8
100 113 620
101 111 177
102 111 853
103 111 64
104 111 46
105 110 212
106 110 133
107 110 717
108 110 27
109 109 631
110 109 624
111 109 916
112 109 322
113 109 638
114 108 767
115 108 997
116 108 363
117 108 235
118 108 594
119 108 382
120 107 704
121 106 608
122 106 17
123 105 1000
124 105 188
125 105 390
126 105 899
127 105 367
128 105 256
129 104 707
130 104 37
131 103 159
132 103 617
133 103 866
134 103 416
135 103 83
136 102 138
137 102 501
138 101 661
139 101 988
140 100 328
141 100 950
142 99 181
143 99 447
144 98 2
145 98 479
146 98 760
147 98 511
148 98 115
149 96 811
150 96 329
151 96 242
152 95 885
153 95 686
154 95 733
155 95 926
156 95 287
157 94 481
158 94 877
159 94 663
160 94 83
161 94 601
162 93 623
163 92 585
164 92 549
165 91 991
166 91 686
167 91 842
168 90 780
169 90 285
170 89 879
171 89 706
172 89 937
173 89 990
174 89 773
175 89 542
176 88 269
177 88 470
178 88 384
179 87 525
180 87 571
181 87 175
182 86 707
183 86 264
184 86 497
185 85 645
186 85 922
187 83 594
188 83 444
189 83 438
190 83 361
191 82 651
192 82 401
193 82 784
194 81 848
195 81 385
196 81 773
197 81 649
198 81 901
199 81 154
200 80 867
201 80 266
202 79 310
203 79 597
204 78 65
205 78 479
206 77 813
207 77 295
208 77 880
209 77 241
210 77 650
211 76 325
212 76 943
213 75 106
214 75 631
215 75 889
216 75 332
217 74 122
218 74 93
219 74 444
220 73 899
221 73 499
222 73 815
223 73 16
224 72 580
225 72 421
226 72 263
227 72 963
228 72 958
229 71 843
230 71 171
231 70 627
232 69 379
233 69 763
234 68 417
235 68 981
236 68 131
237 68 339
238 68 842
239 67 294
240 66 837
241 66 619
242 66 372
243 66 869
244 66 316
245 65 426
246 65 716
247 65 739
248 65 142
249 64 974
250 64 159
251 64 793
252 63 279
253 63 262
254 63 646
255 63 27
256 62 345
257 62 69
258 62 231
259 61 908
260 61 17
261 60 118
262 60 509
263 60 952
264 60 836
265 60 777
266 60 982
267 60 793
268 59 952
269 59 767
270 59 72
271 59 202
272 59 798
273 59 671
274 58 722
275 58 104
276 57 529
277 57 996
278 57 585
279 56 910
280 56 73
281 56 367
282 55 520
283 55 221
284 55 415
285 55 456
286 54 536
287 54 635
288 54 946
289 54 460
290 53 447
291 53 984
292 53 454
293 52 676
294 52 136
295 52 224
296 52 830
297 52 524
298 52 697
299 52 67
300 52 781
301 51 113
302 51 939
303 51 911
304 50 983
305 50 273
306 50 419
307 50 231
308 50 827
309 49 474
310 48 793
311 48 534
312 47 688
313 47 262
314 47 646
315 47 37
316 47 58
317 46 56
318 45 645
319 45 571
320 45 265
321 44 775
322 44 145
323 44 979
324 43 695
325 43 775
326 43 211
327 43 273
328 42 216
329 42 170
330 41 454
331 41 73
332 40 870
333 39 80
334 39 47
335 38 413
336 38 157
337 38 918
338 37 690
339 36 429
340 35 404
341 35 125
342 35 33
343 35 725
344 35 519
345 35 248
346 34 832
347 34 976
348 34 378
349 33 996
350 32 15
351 31 442
352 30 26
353 30 486
354 30 388
355 30 455
356 30 287
357 29 35
358 29 411
359 29 249
360 29 260
361 28 235
362 28 731
363 28 693
364 28 62
365 28 511
366 28 195
367 27 982
368 27 149
369 27 275
370 27 664
371 27 281
372 27 213
373 26 622
374 26 808
375 26 301
376 26 455
377 26 174
378 25 423
379 25 103
380 25 693
381 25 669
382 23 254
383 23 180
384 23 529
385 23 616
386 23 11
387 23 445
388 23 167
389 22 885
390 22 989
391 22 765
392 22 110
393 21 128
394 21 446
395 21 419
396 20 73
397 20 796
398 20 862
399 20 64
400 20 322
